122     4       
23      16      12      26      
0       0       0       0       0       3       2       3       4       
1       0       10      0       0       3       7       18      27      
4       0       2       0       0       3       5       6       11      
4       0       4       0       0       2       28      80      
10      0       0       0       3       3       9       10      21      
6       0       0       0       10      3       8       12      13      
9       0       0       0       10      1       56      
7       0       0       0       9       2       14      88      
8       0       1       0       0       3       16      53      67      
9       0       0       5       0       3       22      29      36      
1       0       0       0       3       3       15      17      44      
5       5       0       0       0       2       19      117     
5       8       0       0       0       1       40      
4       0       3       0       0       3       32      71      91      
1       0       0       0       9       2       60      65      
10      5       0       0       0       3       40      47      74      
10      5       0       0       0       1       20      
2       0       7       0       0       3       23      25      26      
2       0       6       0       0       2       59      89      
4       0       9       0       0       2       78      102     
10      6       0       0       0       3       31      42      54      
3       0       0       0       9       3       34      37      79      
5       1       0       0       0       2       24      62      
8       10      0       0       0       2       49      106     
9       0       0       0       3       1       116     
5       0       0       0       8       2       38      77      
4       0       5       0       0       3       35      52      107     
1       0       4       0       0       1       33      
2       0       0       3       0       2       30      47      
3       0       0       3       0       1       112     
2       0       0       6       0       2       39      99      
1       0       0       4       0       1       51      
9       0       0       0       10      2       41      72      
3       0       0       2       0       1       48      
5       0       0       0       9       1       90      
2       0       2       0       0       1       115     
5       0       0       0       10      2       80      81      
7       6       0       0       0       1       45      
4       0       0       0       2       1       61      
8       0       0       0       6       2       70      85      
8       8       0       0       0       1       46      
3       0       8       0       0       3       43      45      56      
2       0       0       4       0       1       85      
5       0       0       8       0       3       50      64      96      
7       0       0       0       4       2       63      93      
6       0       9       0       0       1       84      
7       0       0       0       6       1       57      
5       0       10      0       0       1       55      
4       10      0       0       0       1       98      
5       1       0       0       0       1       83      
4       0       0       0       7       1       69      
3       0       4       0       0       1       81      
2       0       0       5       0       1       93      
6       0       0       0       6       1       86      
5       0       10      0       0       1       58      
6       0       5       0       0       1       98      
9       0       0       0       2       1       60      
3       0       0       7       0       1       87      
2       0       0       0       4       1       96      
7       10      0       0       0       1       66      
1       0       0       0       6       1       104     
1       10      0       0       0       1       68      
2       0       0       0       5       2       76      92      
2       0       0       7       0       1       106     
4       0       2       0       0       1       114     
2       0       9       0       0       1       100     
5       2       0       0       0       1       75      
6       0       0       0       3       2       69      105     
2       0       0       7       0       1       79      
10      0       0       0       8       2       80      90      
10      7       0       0       0       2       73      75      
10      3       0       0       0       3       100     108     114     
1       0       0       0       4       1       121     
1       0       1       0       0       1       87      
8       0       0       2       0       1       82      
9       0       6       0       0       3       95      97      105     
3       5       0       0       0       1       103     
2       0       0       8       0       1       101     
6       0       0       0       4       1       82      
10      0       0       0       2       2       84      91      
2       0       8       0       0       2       82      94      
6       0       4       0       0       1       108     
4       4       0       0       0       1       87      
4       0       8       0       0       1       109     
2       0       0       9       0       2       89      96      
5       0       0       0       6       1       115     
2       0       5       0       0       3       94      102     110     
4       2       0       0       0       1       93      
5       5       0       0       0       1       112     
6       0       0       5       0       1       103     
1       0       7       0       0       1       113     
6       7       0       0       0       1       107     
6       7       0       0       0       1       109     
1       6       0       0       0       2       113     120     
4       0       0       7       0       1       118     
5       0       2       0       0       1       102     
1       0       0       1       0       1       103     
9       0       1       0       0       1       104     
4       0       0       0       7       1       120     
10      3       0       0       0       2       112     118     
2       10      0       0       0       1       106     
7       2       0       0       0       1       104     
3       0       0       10      0       1       110     
9       0       0       0       1       1       111     
9       5       0       0       0       1       119     
10      1       0       0       0       1       108     
9       0       4       0       0       1       113     
6       0       9       0       0       1       110     
10      0       0       4       0       1       111     
4       3       0       0       0       1       115     
10      0       5       0       0       1       116     
10      0       5       0       0       1       116     
9       0       9       0       0       1       121     
3       0       10      0       0       1       117     
4       0       0       0       6       1       118     
7       0       0       9       0       1       121     
6       0       0       1       0       1       119     
4       0       3       0       0       1       120     
7       7       0       0       0       1       122     
6       0       0       6       0       1       122     
2       0       0       0       5       1       122     
0       0       0       0       0       0       